(set-info :smt-lib-version 2.6)
(set-logic QF_FP)
(set-info :source |
Generated by: Chenqi Cui
Generated on: 2025-12-08
Generator: AutoSMTGen
Application: Generating SMT constraints with small solution spaces to make them challenging for SMT solvers
Target solver: Z3, CVC5, Bitwuzla
|)
(set-info :license "https://creativecommons.org/licenses/by/4.0/")
(set-info :category "industrial")
(set-info :status sat)
; benchmark generated from python API

(declare-fun x6 () (_ FloatingPoint 11 53))
(declare-fun x5 () (_ FloatingPoint 11 53))
(declare-fun x4 () (_ FloatingPoint 11 53))
(declare-fun x3 () (_ FloatingPoint 11 53))
(declare-fun x2 () (_ FloatingPoint 11 53))
(declare-fun x1 () (_ FloatingPoint 11 53))
(declare-fun x0 () (_ FloatingPoint 11 53))
(assert
 (let ((?x17 (fp.add roundNearestTiesToEven (fp.mul roundNearestTiesToEven (fp #b1 #b10000000101 #x3e32ac303de03) x0) (fp.mul roundNearestTiesToEven (fp #b0 #b10000000100 #xc809b088890bc) x1))))
 (let ((?x20 (fp.add roundNearestTiesToEven ?x17 (fp.mul roundNearestTiesToEven (fp #b1 #b10000000100 #x5000151bafeb0) x2))))
 (let ((?x23 (fp.add roundNearestTiesToEven ?x20 (fp.mul roundNearestTiesToEven (fp #b0 #b10000000010 #x66e965f9d6b2b) x3))))
 (let ((?x26 (fp.add roundNearestTiesToEven ?x23 (fp.mul roundNearestTiesToEven (fp #b1 #b10000000101 #x0c5a83b075acb) x4))))
 (let ((?x29 (fp.add roundNearestTiesToEven ?x26 (fp.mul roundNearestTiesToEven (fp #b0 #b10000000100 #xff9e70ed9d0c7) x5))))
 (let ((?x32 (fp.add roundNearestTiesToEven ?x29 (fp.mul roundNearestTiesToEven (fp #b1 #b10000000101 #x697b0776ae4e9) x6))))
 (fp.leq ?x32 (fp #b0 #b10000000101 #x4b46f346e22be)))))))))
(assert
 (let ((?x56 (fp.add roundNearestTiesToEven (fp.mul roundNearestTiesToEven (fp #b1 #b10000000100 #x05d4da664ca74) x0) (fp.mul roundNearestTiesToEven (fp #b1 #b10000000011 #x7c661b29b3a55) x1))))
 (let ((?x59 (fp.add roundNearestTiesToEven ?x56 (fp.mul roundNearestTiesToEven (fp #b1 #b10000000101 #x1220b69aa629c) x2))))
 (let ((?x62 (fp.add roundNearestTiesToEven ?x59 (fp.mul roundNearestTiesToEven (fp #b0 #b10000000000 #xcf35b2fc98649) x3))))
 (let ((?x65 (fp.add roundNearestTiesToEven ?x62 (fp.mul roundNearestTiesToEven (fp #b0 #b10000000101 #x5d2ebe5379170) x4))))
 (let ((?x68 (fp.add roundNearestTiesToEven ?x65 (fp.mul roundNearestTiesToEven (fp #b1 #b10000000011 #x681a5f728d31a) x5))))
 (let ((?x71 (fp.add roundNearestTiesToEven ?x68 (fp.mul roundNearestTiesToEven (fp #b0 #b10000000101 #x517051f83f310) x6))))
 (fp.leq ?x71 (fp #b1 #b10000000101 #x6b73d9f754bda)))))))))
(assert
 (let ((?x78 (fp.add roundNearestTiesToEven (fp.mul roundNearestTiesToEven (fp #b1 #b10000000100 #xaef0a81610239) x0) (fp.mul roundNearestTiesToEven (fp #b0 #b10000000100 #x112d0de808a79) x1))))
 (let ((?x81 (fp.add roundNearestTiesToEven ?x78 (fp.mul roundNearestTiesToEven (fp #b0 #b10000000101 #x675c7b4805caa) x2))))
 (let ((?x84 (fp.add roundNearestTiesToEven ?x81 (fp.mul roundNearestTiesToEven (fp #b1 #b10000000101 #x7d81e7b9df55a) x3))))
 (let ((?x87 (fp.add roundNearestTiesToEven ?x84 (fp.mul roundNearestTiesToEven (fp #b0 #b10000000101 #x578ac7284f4c8) x4))))
 (let ((?x90 (fp.add roundNearestTiesToEven ?x87 (fp.mul roundNearestTiesToEven (fp #b1 #b10000000100 #x2b6df227c2965) x5))))
 (let ((?x93 (fp.add roundNearestTiesToEven ?x90 (fp.mul roundNearestTiesToEven (fp #b1 #b10000000100 #x21c8c46c7d7ce) x6))))
 (fp.leq ?x93 (fp #b1 #b10000000010 #x398b33c0ae2bb)))))))))
(assert
 (let ((?x100 (fp.add roundNearestTiesToEven (fp.mul roundNearestTiesToEven (fp #b0 #b10000000101 #x28c378de12d79) x0) (fp.mul roundNearestTiesToEven (fp #b1 #b10000000100 #x8b7692bf2cff7) x1))))
 (let ((?x103 (fp.add roundNearestTiesToEven ?x100 (fp.mul roundNearestTiesToEven (fp #b0 #b10000000100 #x771885ab19390) x2))))
 (let ((?x106 (fp.add roundNearestTiesToEven ?x103 (fp.mul roundNearestTiesToEven (fp #b0 #b10000000101 #x2b2c0c3f35170) x3))))
 (let ((?x109 (fp.add roundNearestTiesToEven ?x106 (fp.mul roundNearestTiesToEven (fp #b1 #b10000000101 #x71f09ab3aae7c) x4))))
 (let ((?x112 (fp.add roundNearestTiesToEven ?x109 (fp.mul roundNearestTiesToEven (fp #b1 #b10000000100 #x135a9273fb377) x5))))
 (let ((?x115 (fp.add roundNearestTiesToEven ?x112 (fp.mul roundNearestTiesToEven (fp #b1 #b10000000011 #xdcc3b62b51563) x6))))
 (fp.leq ?x115 (fp #b0 #b10000000101 #x597ffc3572514)))))))))
(assert
 (let ((?x122 (fp.add roundNearestTiesToEven (fp.mul roundNearestTiesToEven (fp #b0 #b10000000011 #x323de4bc1784a) x0) (fp.mul roundNearestTiesToEven (fp #b0 #b10000000100 #x31262dfca8b4f) x1))))
 (let ((?x125 (fp.add roundNearestTiesToEven ?x122 (fp.mul roundNearestTiesToEven (fp #b0 #b10000000100 #xe10418b43ad83) x2))))
 (let ((?x128 (fp.add roundNearestTiesToEven ?x125 (fp.mul roundNearestTiesToEven (fp #b1 #b10000000101 #x4d21c2171aae7) x3))))
 (let ((?x131 (fp.add roundNearestTiesToEven ?x128 (fp.mul roundNearestTiesToEven (fp #b0 #b01111111111 #x035da4a97386b) x4))))
 (let ((?x134 (fp.add roundNearestTiesToEven ?x131 (fp.mul roundNearestTiesToEven (fp #b0 #b10000000101 #x25f5811437538) x5))))
 (let ((?x137 (fp.add roundNearestTiesToEven ?x134 (fp.mul roundNearestTiesToEven (fp #b0 #b10000000011 #xec38c50fa74a1) x6))))
 (fp.leq ?x137 (fp #b1 #b10000000100 #x5e271dd385cf0)))))))))
(assert
 (let ((?x144 (fp.add roundNearestTiesToEven (fp.mul roundNearestTiesToEven (fp #b0 #b10000000101 #x5caf0f199833c) x0) (fp.mul roundNearestTiesToEven (fp #b0 #b10000000101 #x1a7b05a89972e) x1))))
 (let ((?x147 (fp.add roundNearestTiesToEven ?x144 (fp.mul roundNearestTiesToEven (fp #b0 #b10000000100 #x08dd45b9c5241) x2))))
 (let ((?x150 (fp.add roundNearestTiesToEven ?x147 (fp.mul roundNearestTiesToEven (fp #b0 #b10000000100 #xb25e56d0b2e4b) x3))))
 (let ((?x153 (fp.add roundNearestTiesToEven ?x150 (fp.mul roundNearestTiesToEven (fp #b0 #b10000000011 #x744e2d8440ce2) x4))))
 (let ((?x156 (fp.add roundNearestTiesToEven ?x153 (fp.mul roundNearestTiesToEven (fp #b1 #b10000000100 #xede1a1577cce6) x5))))
 (let ((?x159 (fp.add roundNearestTiesToEven ?x156 (fp.mul roundNearestTiesToEven (fp #b1 #b10000000010 #x575a9c956bbf6) x6))))
 (fp.leq ?x159 (fp #b0 #b10000000101 #x45ea06c1647b9)))))))))
(assert
 (let ((?x166 (fp.add roundNearestTiesToEven (fp.mul roundNearestTiesToEven (fp #b0 #b10000000101 #x076a40ff5faab) x0) (fp.mul roundNearestTiesToEven (fp #b1 #b10000000000 #x64d9ca5a1502f) x1))))
 (let ((?x169 (fp.add roundNearestTiesToEven ?x166 (fp.mul roundNearestTiesToEven (fp #b1 #b10000000010 #x5b7ba7403ab9f) x2))))
 (let ((?x172 (fp.add roundNearestTiesToEven ?x169 (fp.mul roundNearestTiesToEven (fp #b1 #b10000000101 #x57554f029e35d) x3))))
 (let ((?x175 (fp.add roundNearestTiesToEven ?x172 (fp.mul roundNearestTiesToEven (fp #b1 #b10000000101 #x6845256aedb2d) x4))))
 (let ((?x178 (fp.add roundNearestTiesToEven ?x175 (fp.mul roundNearestTiesToEven (fp #b1 #b10000000101 #x07264c01e4dd7) x5))))
 (let ((?x181 (fp.add roundNearestTiesToEven ?x178 (fp.mul roundNearestTiesToEven (fp #b1 #b10000000100 #x3a48eae343a16) x6))))
 (fp.leq ?x181 (fp #b0 #b10000000101 #x1d3711a75a36c)))))))))
(assert
 (let ((?x188 (fp.add roundNearestTiesToEven (fp.mul roundNearestTiesToEven (fp #b0 #b10000000100 #x1b46aa0e6315a) x0) (fp.mul roundNearestTiesToEven (fp #b1 #b10000000101 #x584441589399b) x1))))
(let ((?x191 (fp.add roundNearestTiesToEven ?x188 (fp.mul roundNearestTiesToEven (fp #b0 #b10000000001 #x11b386c5b5396) x2))))
(let ((?x194 (fp.add roundNearestTiesToEven ?x191 (fp.mul roundNearestTiesToEven (fp #b0 #b10000000100 #xb094b7633d936) x3))))
(let ((?x197 (fp.add roundNearestTiesToEven ?x194 (fp.mul roundNearestTiesToEven (fp #b1 #b10000000011 #x9cf5c7b7ae17c) x4))))
(let ((?x200 (fp.add roundNearestTiesToEven ?x197 (fp.mul roundNearestTiesToEven (fp #b1 #b10000000011 #x47b67922b3997) x5))))
(let ((?x203 (fp.add roundNearestTiesToEven ?x200 (fp.mul roundNearestTiesToEven (fp #b1 #b10000000101 #x0f60480f92e21) x6))))
(fp.leq ?x203 (fp #b0 #b10000000100 #xb40fc60cb3c5b)))))))))
(check-sat)
(exit)
